webassembly/ejemplos_dzn/13/folder13_json_81.dzn
TERM = { '.', 's(2)', 'in_1', 'local_0', 'local_1', 'in_6', 'in_2', 'in_4', 'in_3', 'in_8', 's(1)', 's(0)', 'in_7', 'in_5', 's(3)', 'in_0'};
null = '.';
s = 13;
n = 14;
ndeps = 5;
max_registers_sz = 5;
NR = 2;
registers = [|'local_0', 'in_5', |'local_1', 'in_5'|];
dependencies = [|'i32.store_0', 'i32.load8_s_1', |'i32.load8_s_1', 'i32.store_2', |'i32.store_2', 'i32.store8_7', |'i32.store8_7', 'i32.load16_u_8', |'i32.load16_u_8', 'call[function_index(0)]_12'|];
GET_ENUM = { GET1, GET2, GET3, GET4, GET5, GET6, GET7};
SET_ENUM = { SET1, SET2, SET3, SET4, SET5, SET6, SET7};
TEE_ENUM = { TEE1, TEE2, TEE3, TEE4, TEE5, TEE6, TEE7};
N = 7;
OP = { 'i32.sub_0', 'call[function_index(0)]_12', 'i32.store_0', 'i32.load8_s_1', 'i32.store_2', 'i32.store8_7', 'i32.load16_u_8' };
in_ops = [2, 3, 2, 1, 2, 2, 1 ];
out_ops = [1, 1, 0, 1, 0, 0, 1 ];
in1 = ['s(1)', 'in_5', 'in_0', 'in_2', 's(0)', 'in_5', 'in_6' ];
in2 = ['in_7', 's(2)', 'in_1', '.', 'in_3', 'local_0', '.' ];
in3 = ['.', 'in_8', '.', '.', '.', '.', '.' ];
out1 = ['s(2)', 's(3)', '.', 's(0)', '.', '.', 's(1)' ];
out2 = ['.', '.', '.', '.', '.', '.', '.' ];
out3 = ['.', '.', '.', '.', '.', '.', '.' ];
comm = [false, false, false, false, false, false, false ];
gas = [1, 1, 1, 1, 1, 1, 1 ];
sz = [1, 1, 1, 1, 1, 1, 1 ];
stor = [false, true, true, false, true, true, false ];
lb = [ 1, 1, 1, 1, 1, 1, 1 ];
ub = [ 13, 13, 13, 13, 13, 13, 13 ];
startstack = [ 'in_0', 'in_1', 'in_2', 'in_3', 'in_4', 'in_5', 'in_6', 'in_7', 'in_8', null, null, null, null, null ];
endstack = [ 's(3)', null, null, null, null, null, null, null, null, null, null, null, null, null ];
